

******************************************************************************
This program contains Ipopt, a library for large-scale nonlinear optimization.
 Ipopt is released as open source code under the Eclipse Public License (EPL).
         For more information visit http://projects.coin-or.org/Ipopt
******************************************************************************

This is Ipopt version 3.12.8, running with linear solver mumps.
NOTE: Other linear solvers might be more efficient (see Ipopt documentation).

Number of nonzeros in equality constraint Jacobian...:        0
Number of nonzeros in inequality constraint Jacobian.:        4
Number of nonzeros in Lagrangian Hessian.............:        3

Total number of variables............................:        2
                     variables with only lower bounds:        0
                variables with lower and upper bounds:        1
                     variables with only upper bounds:        1
Total number of equality constraints.................:        0
Total number of inequality constraints...............:        2
        inequality constraints with only lower bounds:        2
   inequality constraints with lower and upper bounds:        0
        inequality constraints with only upper bounds:        0

iter    objective    inf_pr   inf_du lg(mu)  ||d||  lg(rg) alpha_du alpha_pr  ls
   0  5.8455101e+01 7.50e-01 4.77e+00  -1.0 0.00e+00    -  0.00e+00 0.00e+00   0
   1  5.4169621e+01 7.21e-01 4.07e+00  -1.0 5.74e-01    -  3.31e-02 5.02e-02h  1
   2  2.3718806e+00 5.03e-02 1.90e+00  -1.0 1.66e+00    -  5.01e-01 8.61e-01f  1
   3  9.0241987e+00 0.00e+00 7.07e-01  -1.0 4.58e-01    -  6.47e-01 1.00e+00f  1
   4  2.1633239e+00 0.00e+00 3.64e-01  -1.7 1.57e-01    -  6.71e-01 1.00e+00h  1
   5  1.7103087e+00 0.00e+00 4.84e-02  -1.7 8.20e-02    -  1.00e+00 1.00e+00h  1
   6  1.2582468e+00 0.00e+00 1.81e-02  -2.5 5.19e-02    -  1.00e+00 1.00e+00h  1
   7  1.0450149e+00 0.00e+00 3.18e-02  -3.8 6.21e-02    -  9.41e-01 1.00e+00h  1
   8  1.0124163e+00 0.00e+00 1.16e-04  -3.8 1.16e-02    -  1.00e+00 1.00e+00h  1
   9  1.0022156e+00 0.00e+00 2.67e-05  -5.7 4.64e-03    -  1.00e+00 1.00e+00h  1
iter    objective    inf_pr   inf_du lg(mu)  ||d||  lg(rg) alpha_du alpha_pr  ls
  10  1.0005947e+00 0.00e+00 2.61e-08  -5.7 2.30e-03    -  1.00e+00 1.00e+00h  1
  11  1.0001932e+00 0.00e+00 2.94e-11  -5.7 1.13e-03    -  1.00e+00 1.00e+00h  1
  12  1.0000374e+00 0.00e+00 4.54e-09  -8.6 6.11e-04    -  1.00e+00 1.00e+00h  1
  13  1.0000094e+00 0.00e+00 2.91e-12  -8.6 3.05e-04    -  1.00e+00 1.00e+00h  1
  14  1.0000024e+00 0.00e+00 2.54e-14  -8.6 1.52e-04    -  1.00e+00 1.00e+00h  1
  15  1.0000006e+00 0.00e+00 2.51e-14  -8.6 7.57e-05    -  1.00e+00 1.00e+00h  1
  16  1.0000002e+00 0.00e+00 2.51e-14  -8.6 3.69e-05    -  1.00e+00 1.00e+00h  1
  17  1.0000000e+00 0.00e+00 1.20e-13  -9.0 1.90e-05    -  1.00e+00 1.00e+00h  1

Number of Iterations....: 17

                                   (scaled)                 (unscaled)
Objective...............:   4.1562761806005960e-02    1.0000000490525034e+00
Dual infeasibility......:   1.2043047290603024e-13    2.8975571781190873e-12
Constraint violation....:   0.0000000000000000e+00    0.0000000000000000e+00
Complementarity.........:   3.8633064417595702e-09    9.2951152988735251e-08
Overall NLP error.......:   3.8633064417595702e-09    9.2951152988735251e-08


Number of objective function evaluations             = 18
Number of objective gradient evaluations             = 18
Number of equality constraint evaluations            = 0
Number of inequality constraint evaluations          = 18
Number of equality constraint Jacobian evaluations   = 0
Number of inequality constraint Jacobian evaluations = 18
Number of Lagrangian Hessian evaluations             = 17
Total CPU secs in IPOPT (w/o function evaluations)   =      0.005
Total CPU secs in NLP function evaluations           =      0.000

EXIT: Optimal Solution Found.
 
Ipopt 3.12.8: Optimal Solution Found
